5818.09
0 6 1 14 2 5 9 3 10 12 8 13 11 4 7 18 0
0 17 16 15 21 22 20 26 19 23 24 37 34 27 0
0 42 38 43 39 28 31 30 32 29 25 51 0
0 47 40 41 35 33 36 58 57 63 0
0 73 67 44 49 50 48 45 46 85 53 54 56 52 61 0
0 77 76 80 70 68 71 69 66 64 60 55 59 0
0 65 74 94 75 81 91 78 102 98 99 62 0
0 84 79 83 82 104 106 103 72 0
0 93 95 88 90 86 87 92 89 108 109 0
0 115 124 122 101 100 97 110 96 0
0 125 119 113 114 116 112 105 111 107 0
0 123 120 121 117 126 118 134 131 130 132 129 0
0 144 140 127 128 133 135 136 0
0 147 142 138 139 137 149 145 146 143 141 150 0
0 148 0
